
(set-logic QF_ASNIA)
(set-option :produce-models true)
(set-option :strings-exp true)


(define-fun isinteger ((x!1 String)) Bool (str.in_re x!1 (re.+ (re.range "0" "9")))  )
(define-fun notinteger ((x!1 String)) Bool (not (isinteger x!1)) )
(define-fun real.str.from_int ((i Int)) String (ite (< i 0) (str.++ "-" (str.from_int (- i))) (str.from_int i)))
(define-fun real.str.to_int ((i String)) Int (ite (= (str.substr i 0 1) "-") (- (str.to_int (str.substr i 1 (- (str.len i) 1)))) (str.to_int i)))

(declare-fun input6_P2_d14 () String)
(declare-fun input6_P2_d16 () String)
(declare-fun input5_P2_d9 () String)
(declare-fun x29_P1 () String)
(declare-fun input3_P2_d1 () String)
(declare-fun input4_P1_d4 () String)
(declare-fun input6_P2_d17 () String)
(declare-fun x19_P1 () String)
(declare-fun input6_P1_d20 () String)
(declare-fun input3_P1_d3 () String)
(declare-fun input6_P2_d18 () String)
(declare-fun input2_P2_d22 () String)
(declare-fun input5_P2_d7 () String)
(declare-fun input3_P2_d12 () String)
(declare-fun input5_P2_d1 () String)
(declare-fun input1_P2_d1 () String)
(declare-fun input2_P1_d19 () String)
(declare-fun x71_P2 () String)
(declare-fun input5_P1_d2 () String)
(declare-fun x6_P2 () String)
(declare-fun input3_P2_d13 () String)
(declare-fun input3_P1_d13 () String)
(declare-fun input6_P1_d10 () String)
(declare-fun input5_P1_d0 () String)
(declare-fun x76 () Int)
(declare-fun input2_P2_d14 () String)
(declare-fun input3_P1_d7 () String)
(declare-fun input3_P1_d10 () String)
(declare-fun input6_P1_d9 () String)
(declare-fun input6_P1_d14 () String)
(declare-fun input1_P2 () String)
(declare-fun input2_P1_d5 () String)
(declare-fun input4_P2_d4 () String)
(declare-fun input3_P2_d11 () String)
(declare-fun input2_P1_d6 () String)
(declare-fun input2_P2_d6 () String)
(declare-fun input3_P1_d2 () String)
(declare-fun input2_P1_d1 () String)
(declare-fun input3_P2_d5 () String)
(declare-fun input4_P1_d0 () String)
(declare-fun input6_P1_d4 () String)
(declare-fun input3_P2_d2 () String)
(declare-fun x16_P1 () String)
(declare-fun input1_P1_d5 () String)
(declare-fun input5_P2_d6 () String)
(declare-fun input4_P1 () String)
(declare-fun input2_P1_d9 () String)
(declare-fun x26_P2 () String)
(declare-fun input2_P2_d15 () String)
(declare-fun input2_P2_d16 () String)
(declare-fun input3_P1_d4 () String)
(declare-fun x71_P1 () String)
(declare-fun input4_P2_d1 () String)
(declare-fun input6_P2_d1 () String)
(declare-fun x41_P1 () String)
(declare-fun input6_P2 () String)
(declare-fun input2_P2_d11 () String)
(declare-fun x52_P1 () String)
(declare-fun input6_P1_d18 () String)
(declare-fun input6_P2_d2 () String)
(declare-fun input5_P1_d7 () String)
(declare-fun x3_P1 () String)
(declare-fun input2_P2_d7 () String)
(declare-fun input1_P1_d6 () String)
(declare-fun x41_P2 () String)
(declare-fun x79 () (Array Int Int))
(declare-fun input2_P1_d18 () String)
(declare-fun input6_P1_d3 () String)
(declare-fun input1_P1_d2 () String)
(declare-fun input6_P2_d3 () String)
(declare-fun input3_P2_d10 () String)
(declare-fun input6_P1_d7 () String)
(declare-fun input6_P2_d8 () String)
(declare-fun input3_P1_d11 () String)
(declare-fun input5_P1_d8 () String)
(declare-fun x9_P2 () String)
(declare-fun input4_P1_d2 () String)
(declare-fun x3_P2 () String)
(declare-fun input6_P1_d8 () String)
(declare-fun input6_P1_d6 () String)
(declare-fun input2_P2_d2 () String)
(declare-fun input3_P1_d14 () String)
(declare-fun x73_P2 () Int)
(declare-fun input3_P2_d19 () String)
(declare-fun input3_P1_d8 () String)
(declare-fun input2_P1_d21 () String)
(declare-fun input4_P2_d0 () String)
(declare-fun input3_P2_d15 () String)
(declare-fun input6_P2_d25 () String)
(declare-fun input1_P2_d5 () String)
(declare-fun input4_P2 () String)
(declare-fun input3_P1_d16 () String)
(declare-fun input1_P2_d3 () String)
(declare-fun input4_P2_d2 () String)
(declare-fun input2_P2_d10 () String)
(declare-fun input5_P1 () String)
(declare-fun input2_P1_d10 () String)
(declare-fun input3_P1_d17 () String)
(declare-fun input2_P1_d17 () String)
(declare-fun input5_P2 () String)
(declare-fun input3_P2_d18 () String)
(declare-fun input2_P2_d5 () String)
(declare-fun input6_P2_d0 () String)
(declare-fun input2_P1_d20 () String)
(declare-fun input2_P1_d2 () String)
(declare-fun input5_P2_d2 () String)
(declare-fun input6_P1_d17 () String)
(declare-fun input2_P2_d20 () String)
(declare-fun input6_P1_d13 () String)
(declare-fun input5_P2_d4 () String)
(declare-fun input2_P2_d0 () String)
(declare-fun input6_P1_d12 () String)
(declare-fun input2_P1 () String)
(declare-fun input6_P1_d16 () String)
(declare-fun input6_P2_d15 () String)
(declare-fun input1_P2_d2 () String)
(declare-fun input3_P1_d18 () String)
(declare-fun input2_P2_d18 () String)
(declare-fun input2_P1_d12 () String)
(declare-fun input3_P1_d0 () String)
(declare-fun input6_P1 () String)
(declare-fun x69_P1 () String)
(declare-fun input2_P1_d15 () String)
(declare-fun x70_P2 () String)
(declare-fun input3_P1_d19 () String)
(declare-fun input1_P1_d8 () String)
(declare-fun input1_P2_d6 () String)
(declare-fun x70_P1 () String)
(declare-fun input6_P1_d22 () String)
(declare-fun input3_P1_d1 () String)
(declare-fun input6_P2_d6 () String)
(declare-fun input3_P2_d6 () String)
(declare-fun input6_P1_d11 () String)
(declare-fun input2_P2 () String)
(declare-fun input5_P2_d5 () String)
(declare-fun input2_P2_d1 () String)
(declare-fun input2_P2_d13 () String)
(declare-fun input4_P1_d1 () String)
(declare-fun x38_P2 () String)
(declare-fun input1_P1 () String)
(declare-fun x6_P1 () String)
(declare-fun input6_P2_d7 () String)
(declare-fun input2_P1_d7 () String)
(declare-fun input3_P1_d15 () String)
(declare-fun input2_P1_d3 () String)
(declare-fun input3_P2_d8 () String)
(declare-fun input3_P1_d9 () String)
(declare-fun input4_P2_d3 () String)
(declare-fun input2_P1_d22 () String)
(declare-fun input5_P2_d0 () String)
(declare-fun input6_P1_d25 () String)
(declare-fun input6_P1_d19 () String)
(declare-fun input2_P1_d14 () String)
(declare-fun input1_P2_d4 () String)
(declare-fun input6_P2_d22 () String)
(declare-fun input2_P1_d8 () String)
(declare-fun input6_P1_d2 () String)
(declare-fun input3_P2_d9 () String)
(declare-fun input6_P2_d10 () String)
(declare-fun x73_P1 () Int)
(declare-fun input3_P2_d0 () String)
(declare-fun x69_P2 () String)
(declare-fun input2_P2_d17 () String)
(declare-fun input1_P2_d8 () String)
(declare-fun input3_P1 () String)
(declare-fun input2_P2_d3 () String)
(declare-fun input6_P2_d20 () String)
(declare-fun input5_P1_d1 () String)
(declare-fun input5_P1_d9 () String)
(declare-fun input2_P1_d11 () String)
(declare-fun input2_P1_d0 () String)
(declare-fun input3_P1_d20 () String)
(declare-fun input3_P1_d5 () String)
(declare-fun input2_P2_d21 () String)
(declare-fun input3_P2_d14 () String)
(declare-fun x77 () Int)
(declare-fun input3_P2_d17 () String)
(declare-fun x9_P1 () String)
(declare-fun input6_P1_d15 () String)
(declare-fun x26_P1 () String)
(declare-fun input3_P2_d20 () String)
(declare-fun input6_P2_d5 () String)
(declare-fun input6_P2_d11 () String)
(declare-fun input6_P1_d5 () String)
(declare-fun input1_P1_d3 () String)
(declare-fun input6_P1_d23 () String)
(declare-fun input6_P1_d21 () String)
(declare-fun x19_P2 () String)
(declare-fun input4_P1_d3 () String)
(declare-fun input1_P1_d0 () String)
(declare-fun input6_P2_d4 () String)
(declare-fun input5_P2_d8 () String)
(declare-fun input5_P1_d6 () String)
(declare-fun input3_P2_d7 () String)
(declare-fun input2_P1_d13 () String)
(declare-fun x75 () Int)
(declare-fun input2_P2_d4 () String)
(declare-fun input5_P1_d5 () String)
(declare-fun input1_P1_d4 () String)
(declare-fun x72_P2 () String)
(declare-fun input3_P2_d16 () String)
(declare-fun input3_P2_d3 () String)
(declare-fun input5_P1_d3 () String)
(declare-fun input3_P1_d6 () String)
(declare-fun input6_P2_d21 () String)
(declare-fun input2_P1_d16 () String)
(declare-fun input3_P1_d12 () String)
(declare-fun x16_P2 () String)
(declare-fun x72_P1 () String)
(declare-fun input6_P2_d13 () String)
(declare-fun input5_P2_d3 () String)
(declare-fun input1_P1_d7 () String)
(declare-fun x38_P1 () String)
(declare-fun input6_P2_d24 () String)
(declare-fun input2_P2_d12 () String)
(declare-fun input3_P2 () String)
(declare-fun input5_P1_d4 () String)
(declare-fun input6_P1_d0 () String)
(declare-fun input6_P1_d1 () String)
(declare-fun input2_P1_d4 () String)
(declare-fun input6_P1_d24 () String)
(declare-fun input1_P2_d7 () String)
(declare-fun input1_P2_d0 () String)
(declare-fun input6_P2_d19 () String)
(declare-fun x29_P2 () String)
(declare-fun x78 () Int)
(declare-fun input2_P2_d19 () String)
(declare-fun input1_P1_d1 () String)
(declare-fun input3_P2_d4 () String)
(declare-fun input2_P2_d9 () String)
(declare-fun input6_P2_d23 () String)
(declare-fun input6_P2_d9 () String)
(declare-fun input6_P2_d12 () String)
(declare-fun x52_P2 () String)
(declare-fun input2_P2_d8 () String)



     
(declare-fun input3_P1_d21 () String)
(declare-fun input1_P1_d9 () String)
(declare-fun input1_P1_d10 () String)
(declare-fun input1_P1_d11 () String)
(declare-fun input1_P1_d12 () String)
(declare-fun input1_P1_d13 () String)
(declare-fun input1_P1_d14 () String)
(declare-fun input1_P1_d15 () String)
(declare-fun input1_P1_d16 () String)
(declare-fun input1_P1_d17 () String)
(declare-fun input1_P1_d18 () String)
(declare-fun input1_P1_d19 () String)
(declare-fun input1_P1_d20 () String)
(declare-fun input1_P1_d21 () String)
(declare-fun input1_P1_d22 () String)
(declare-fun input1_P1_d23 () String)
(declare-fun input1_P1_d24 () String)
(declare-fun input1_P1_d25 () String)
(declare-fun input1_P1_d26 () String)
(declare-fun input1_P1_d27 () String)
(declare-fun input6_P2_d26 () String)
(declare-fun input6_P2_d27 () String)
(declare-fun input6_P2_d28 () String)
(declare-fun input4_P2_d5 () String)
(declare-fun input4_P2_d6 () String)
(declare-fun input4_P2_d7 () String)
(declare-fun input4_P2_d8 () String)
(declare-fun input4_P2_d9 () String)
(declare-fun input4_P2_d10 () String)
(declare-fun input4_P2_d11 () String)
(declare-fun input4_P2_d12 () String)
(declare-fun input4_P2_d13 () String)
(declare-fun input4_P2_d14 () String)
(declare-fun input4_P2_d15 () String)
(declare-fun input4_P2_d16 () String)
(declare-fun input4_P2_d17 () String)
(declare-fun input6_P1_d26 () String)
(declare-fun input6_P1_d27 () String)
(declare-fun input6_P1_d28 () String)
(declare-fun input4_P1_d5 () String)
(declare-fun input4_P1_d6 () String)
(declare-fun input4_P1_d7 () String)
(declare-fun input4_P1_d8 () String)
(declare-fun input4_P1_d9 () String)
(declare-fun input4_P1_d10 () String)
(declare-fun input4_P1_d11 () String)
(declare-fun input4_P1_d12 () String)
(declare-fun input4_P1_d13 () String)
(declare-fun input4_P1_d14 () String)
(declare-fun input4_P1_d15 () String)
(declare-fun input4_P1_d16 () String)
(declare-fun input4_P1_d17 () String)
(declare-fun input5_P2_d10 () String)
(declare-fun input5_P2_d11 () String)
(declare-fun input5_P2_d12 () String)
(declare-fun input3_P2_d21 () String)
(declare-fun input1_P2_d9 () String)
(declare-fun input1_P2_d10 () String)
(declare-fun input1_P2_d11 () String)
(declare-fun input1_P2_d12 () String)
(declare-fun input1_P2_d13 () String)
(declare-fun input1_P2_d14 () String)
(declare-fun input1_P2_d15 () String)
(declare-fun input1_P2_d16 () String)
(declare-fun input1_P2_d17 () String)
(declare-fun input1_P2_d18 () String)
(declare-fun input1_P2_d19 () String)
(declare-fun input1_P2_d20 () String)
(declare-fun input1_P2_d21 () String)
(declare-fun input1_P2_d22 () String)
(declare-fun input1_P2_d23 () String)
(declare-fun input1_P2_d24 () String)
(declare-fun input1_P2_d25 () String)
(declare-fun input1_P2_d26 () String)
(declare-fun input1_P2_d27 () String)
(declare-fun input5_P1_d10 () String)
(declare-fun input5_P1_d11 () String)
(declare-fun input5_P1_d12 () String)
(assert (= input3_P1 (str.++ (str.++ (str.++ (str.++ (str.++ (str.++ (str.++ (str.++ (str.++ (str.++ (str.++ (str.++ (str.++ (str.++ (str.++ (str.++ (str.++ (str.++ (str.++ (str.++ (str.++ input3_P1_d0 (str.++ "," input3_P1_d1)) (str.++ "," input3_P1_d2)) (str.++ "," input3_P1_d3)) (str.++ "," input3_P1_d4)) (str.++ "," input3_P1_d5)) (str.++ "," input3_P1_d6)) (str.++ "," input3_P1_d7)) (str.++ "," input3_P1_d8)) (str.++ "," input3_P1_d9)) (str.++ "," input3_P1_d10)) (str.++ "," input3_P1_d11)) (str.++ "," input3_P1_d12)) (str.++ "," input3_P1_d13)) (str.++ "," input3_P1_d14)) (str.++ "," input3_P1_d15)) (str.++ "," input3_P1_d16)) (str.++ "," input3_P1_d17)) (str.++ "," input3_P1_d18)) (str.++ "," input3_P1_d19)) (str.++ "," input3_P1_d20)) (str.++ "," input3_P1_d21)))); splitHandler input3_P1 22
(assert (= input1_P1 (str.++ (str.++ (str.++ (str.++ (str.++ (str.++ (str.++ (str.++ (str.++ (str.++ (str.++ (str.++ (str.++ (str.++ (str.++ (str.++ (str.++ (str.++ (str.++ (str.++ (str.++ (str.++ (str.++ (str.++ (str.++ (str.++ (str.++ input1_P1_d0 (str.++ "," input1_P1_d1)) (str.++ "," input1_P1_d2)) (str.++ "," input1_P1_d3)) (str.++ "," input1_P1_d4)) (str.++ "," input1_P1_d5)) (str.++ "," input1_P1_d6)) (str.++ "," input1_P1_d7)) (str.++ "," input1_P1_d8)) (str.++ "," input1_P1_d9)) (str.++ "," input1_P1_d10)) (str.++ "," input1_P1_d11)) (str.++ "," input1_P1_d12)) (str.++ "," input1_P1_d13)) (str.++ "," input1_P1_d14)) (str.++ "," input1_P1_d15)) (str.++ "," input1_P1_d16)) (str.++ "," input1_P1_d17)) (str.++ "," input1_P1_d18)) (str.++ "," input1_P1_d19)) (str.++ "," input1_P1_d20)) (str.++ "," input1_P1_d21)) (str.++ "," input1_P1_d22)) (str.++ "," input1_P1_d23)) (str.++ "," input1_P1_d24)) (str.++ "," input1_P1_d25)) (str.++ "," input1_P1_d26)) (str.++ "," input1_P1_d27)))); splitHandler input1_P1 28
(assert (= input6_P2 (str.++ (str.++ (str.++ (str.++ (str.++ (str.++ (str.++ (str.++ (str.++ (str.++ (str.++ (str.++ (str.++ (str.++ (str.++ (str.++ (str.++ (str.++ (str.++ (str.++ (str.++ (str.++ (str.++ (str.++ (str.++ (str.++ (str.++ (str.++ input6_P2_d0 (str.++ "," input6_P2_d1)) (str.++ "," input6_P2_d2)) (str.++ "," input6_P2_d3)) (str.++ "," input6_P2_d4)) (str.++ "," input6_P2_d5)) (str.++ "," input6_P2_d6)) (str.++ "," input6_P2_d7)) (str.++ "," input6_P2_d8)) (str.++ "," input6_P2_d9)) (str.++ "," input6_P2_d10)) (str.++ "," input6_P2_d11)) (str.++ "," input6_P2_d12)) (str.++ "," input6_P2_d13)) (str.++ "," input6_P2_d14)) (str.++ "," input6_P2_d15)) (str.++ "," input6_P2_d16)) (str.++ "," input6_P2_d17)) (str.++ "," input6_P2_d18)) (str.++ "," input6_P2_d19)) (str.++ "," input6_P2_d20)) (str.++ "," input6_P2_d21)) (str.++ "," input6_P2_d22)) (str.++ "," input6_P2_d23)) (str.++ "," input6_P2_d24)) (str.++ "," input6_P2_d25)) (str.++ "," input6_P2_d26)) (str.++ "," input6_P2_d27)) (str.++ "," input6_P2_d28)))); splitHandler input6_P2 29
(assert (= input4_P2 (str.++ (str.++ (str.++ (str.++ (str.++ (str.++ (str.++ (str.++ (str.++ (str.++ (str.++ (str.++ (str.++ (str.++ (str.++ (str.++ (str.++ input4_P2_d0 (str.++ "," input4_P2_d1)) (str.++ "," input4_P2_d2)) (str.++ "," input4_P2_d3)) (str.++ "," input4_P2_d4)) (str.++ "," input4_P2_d5)) (str.++ "," input4_P2_d6)) (str.++ "," input4_P2_d7)) (str.++ "," input4_P2_d8)) (str.++ "," input4_P2_d9)) (str.++ "," input4_P2_d10)) (str.++ "," input4_P2_d11)) (str.++ "," input4_P2_d12)) (str.++ "," input4_P2_d13)) (str.++ "," input4_P2_d14)) (str.++ "," input4_P2_d15)) (str.++ "," input4_P2_d16)) (str.++ "," input4_P2_d17)))); splitHandler input4_P2 18
(assert (= input2_P2 (str.++ (str.++ (str.++ (str.++ (str.++ (str.++ (str.++ (str.++ (str.++ (str.++ (str.++ (str.++ (str.++ (str.++ (str.++ (str.++ (str.++ (str.++ (str.++ (str.++ (str.++ (str.++ input2_P2_d0 (str.++ "," input2_P2_d1)) (str.++ "," input2_P2_d2)) (str.++ "," input2_P2_d3)) (str.++ "," input2_P2_d4)) (str.++ "," input2_P2_d5)) (str.++ "," input2_P2_d6)) (str.++ "," input2_P2_d7)) (str.++ "," input2_P2_d8)) (str.++ "," input2_P2_d9)) (str.++ "," input2_P2_d10)) (str.++ "," input2_P2_d11)) (str.++ "," input2_P2_d12)) (str.++ "," input2_P2_d13)) (str.++ "," input2_P2_d14)) (str.++ "," input2_P2_d15)) (str.++ "," input2_P2_d16)) (str.++ "," input2_P2_d17)) (str.++ "," input2_P2_d18)) (str.++ "," input2_P2_d19)) (str.++ "," input2_P2_d20)) (str.++ "," input2_P2_d21)) (str.++ "," input2_P2_d22)))); splitHandler input2_P2 23
(assert (= input6_P1 (str.++ (str.++ (str.++ (str.++ (str.++ (str.++ (str.++ (str.++ (str.++ (str.++ (str.++ (str.++ (str.++ (str.++ (str.++ (str.++ (str.++ (str.++ (str.++ (str.++ (str.++ (str.++ (str.++ (str.++ (str.++ (str.++ (str.++ (str.++ input6_P1_d0 (str.++ "," input6_P1_d1)) (str.++ "," input6_P1_d2)) (str.++ "," input6_P1_d3)) (str.++ "," input6_P1_d4)) (str.++ "," input6_P1_d5)) (str.++ "," input6_P1_d6)) (str.++ "," input6_P1_d7)) (str.++ "," input6_P1_d8)) (str.++ "," input6_P1_d9)) (str.++ "," input6_P1_d10)) (str.++ "," input6_P1_d11)) (str.++ "," input6_P1_d12)) (str.++ "," input6_P1_d13)) (str.++ "," input6_P1_d14)) (str.++ "," input6_P1_d15)) (str.++ "," input6_P1_d16)) (str.++ "," input6_P1_d17)) (str.++ "," input6_P1_d18)) (str.++ "," input6_P1_d19)) (str.++ "," input6_P1_d20)) (str.++ "," input6_P1_d21)) (str.++ "," input6_P1_d22)) (str.++ "," input6_P1_d23)) (str.++ "," input6_P1_d24)) (str.++ "," input6_P1_d25)) (str.++ "," input6_P1_d26)) (str.++ "," input6_P1_d27)) (str.++ "," input6_P1_d28)))); splitHandler input6_P1 29
(assert (= input4_P1 (str.++ (str.++ (str.++ (str.++ (str.++ (str.++ (str.++ (str.++ (str.++ (str.++ (str.++ (str.++ (str.++ (str.++ (str.++ (str.++ (str.++ input4_P1_d0 (str.++ "," input4_P1_d1)) (str.++ "," input4_P1_d2)) (str.++ "," input4_P1_d3)) (str.++ "," input4_P1_d4)) (str.++ "," input4_P1_d5)) (str.++ "," input4_P1_d6)) (str.++ "," input4_P1_d7)) (str.++ "," input4_P1_d8)) (str.++ "," input4_P1_d9)) (str.++ "," input4_P1_d10)) (str.++ "," input4_P1_d11)) (str.++ "," input4_P1_d12)) (str.++ "," input4_P1_d13)) (str.++ "," input4_P1_d14)) (str.++ "," input4_P1_d15)) (str.++ "," input4_P1_d16)) (str.++ "," input4_P1_d17)))); splitHandler input4_P1 18
(assert (= input2_P1 (str.++ (str.++ (str.++ (str.++ (str.++ (str.++ (str.++ (str.++ (str.++ (str.++ (str.++ (str.++ (str.++ (str.++ (str.++ (str.++ (str.++ (str.++ (str.++ (str.++ (str.++ (str.++ input2_P1_d0 (str.++ "," input2_P1_d1)) (str.++ "," input2_P1_d2)) (str.++ "," input2_P1_d3)) (str.++ "," input2_P1_d4)) (str.++ "," input2_P1_d5)) (str.++ "," input2_P1_d6)) (str.++ "," input2_P1_d7)) (str.++ "," input2_P1_d8)) (str.++ "," input2_P1_d9)) (str.++ "," input2_P1_d10)) (str.++ "," input2_P1_d11)) (str.++ "," input2_P1_d12)) (str.++ "," input2_P1_d13)) (str.++ "," input2_P1_d14)) (str.++ "," input2_P1_d15)) (str.++ "," input2_P1_d16)) (str.++ "," input2_P1_d17)) (str.++ "," input2_P1_d18)) (str.++ "," input2_P1_d19)) (str.++ "," input2_P1_d20)) (str.++ "," input2_P1_d21)) (str.++ "," input2_P1_d22)))); splitHandler input2_P1 23
(assert (= input5_P2 (str.++ (str.++ (str.++ (str.++ (str.++ (str.++ (str.++ (str.++ (str.++ (str.++ (str.++ (str.++ input5_P2_d0 (str.++ "," input5_P2_d1)) (str.++ "," input5_P2_d2)) (str.++ "," input5_P2_d3)) (str.++ "," input5_P2_d4)) (str.++ "," input5_P2_d5)) (str.++ "," input5_P2_d6)) (str.++ "," input5_P2_d7)) (str.++ "," input5_P2_d8)) (str.++ "," input5_P2_d9)) (str.++ "," input5_P2_d10)) (str.++ "," input5_P2_d11)) (str.++ "," input5_P2_d12)))); splitHandler input5_P2 13
(assert (= input3_P2 (str.++ (str.++ (str.++ (str.++ (str.++ (str.++ (str.++ (str.++ (str.++ (str.++ (str.++ (str.++ (str.++ (str.++ (str.++ (str.++ (str.++ (str.++ (str.++ (str.++ (str.++ input3_P2_d0 (str.++ "," input3_P2_d1)) (str.++ "," input3_P2_d2)) (str.++ "," input3_P2_d3)) (str.++ "," input3_P2_d4)) (str.++ "," input3_P2_d5)) (str.++ "," input3_P2_d6)) (str.++ "," input3_P2_d7)) (str.++ "," input3_P2_d8)) (str.++ "," input3_P2_d9)) (str.++ "," input3_P2_d10)) (str.++ "," input3_P2_d11)) (str.++ "," input3_P2_d12)) (str.++ "," input3_P2_d13)) (str.++ "," input3_P2_d14)) (str.++ "," input3_P2_d15)) (str.++ "," input3_P2_d16)) (str.++ "," input3_P2_d17)) (str.++ "," input3_P2_d18)) (str.++ "," input3_P2_d19)) (str.++ "," input3_P2_d20)) (str.++ "," input3_P2_d21)))); splitHandler input3_P2 22
(assert (= input1_P2 (str.++ (str.++ (str.++ (str.++ (str.++ (str.++ (str.++ (str.++ (str.++ (str.++ (str.++ (str.++ (str.++ (str.++ (str.++ (str.++ (str.++ (str.++ (str.++ (str.++ (str.++ (str.++ (str.++ (str.++ (str.++ (str.++ (str.++ input1_P2_d0 (str.++ "," input1_P2_d1)) (str.++ "," input1_P2_d2)) (str.++ "," input1_P2_d3)) (str.++ "," input1_P2_d4)) (str.++ "," input1_P2_d5)) (str.++ "," input1_P2_d6)) (str.++ "," input1_P2_d7)) (str.++ "," input1_P2_d8)) (str.++ "," input1_P2_d9)) (str.++ "," input1_P2_d10)) (str.++ "," input1_P2_d11)) (str.++ "," input1_P2_d12)) (str.++ "," input1_P2_d13)) (str.++ "," input1_P2_d14)) (str.++ "," input1_P2_d15)) (str.++ "," input1_P2_d16)) (str.++ "," input1_P2_d17)) (str.++ "," input1_P2_d18)) (str.++ "," input1_P2_d19)) (str.++ "," input1_P2_d20)) (str.++ "," input1_P2_d21)) (str.++ "," input1_P2_d22)) (str.++ "," input1_P2_d23)) (str.++ "," input1_P2_d24)) (str.++ "," input1_P2_d25)) (str.++ "," input1_P2_d26)) (str.++ "," input1_P2_d27)))); splitHandler input1_P2 28
(assert (= input5_P1 (str.++ (str.++ (str.++ (str.++ (str.++ (str.++ (str.++ (str.++ (str.++ (str.++ (str.++ (str.++ input5_P1_d0 (str.++ "," input5_P1_d1)) (str.++ "," input5_P1_d2)) (str.++ "," input5_P1_d3)) (str.++ "," input5_P1_d4)) (str.++ "," input5_P1_d5)) (str.++ "," input5_P1_d6)) (str.++ "," input5_P1_d7)) (str.++ "," input5_P1_d8)) (str.++ "," input5_P1_d9)) (str.++ "," input5_P1_d10)) (str.++ "," input5_P1_d11)) (str.++ "," input5_P1_d12)))); splitHandler input5_P1 13
(assert (>= (str.len input5_P2_d9) 5)) 
(assert (>= (str.len input6_P1_d25) 5)) 
(assert (>= (str.len input6_P2_d25) 5)) 
(assert (>= (str.len input5_P1_d9) 5)) 
(assert  (and (=  x73_P1 ( select  x79 0 ) )  (and (=  x73_P2 ( select  x79 1 ) )  (and (=  x3_P1 input1_P1_d0 )  (and (=  x6_P1 input2_P1_d22 )  (and (=  x9_P1 input2_P1_d1 )  (and (=  x16_P1 input3_P1_d0 )  (and (=  x19_P1 input2_P1_d2 )  (and (=  x26_P1 input4_P1_d0 )  (and (=  x29_P1 input4_P1_d4 )  (and (=  x38_P1 input5_P1_d0 )  (and (=  x41_P1 input2_P1_d6 )  (and (=  x52_P1 input6_P1_d0 )  (and (=  x69_P1 input3_P1_d7 )  (and (=  x70_P1 input3_P1_d8 )  (and (=  x71_P1 input3_P1_d13 )  (and (=  x72_P1 input3_P1_d14 )  (and (=  x73_P1 ( str.to_int input2_P1_d14  ) )  (and (=  x3_P2 input1_P2_d0 )  (and (=  x6_P2 input2_P2_d22 )  (and (=  x9_P2 input2_P2_d1 )  (and (=  x16_P2 input3_P2_d0 )  (and (=  x19_P2 input2_P2_d2 )  (and (=  x26_P2 input4_P2_d0 )  (and (=  x29_P2 input4_P2_d4 )  (and (=  x38_P2 input5_P2_d0 )  (and (=  x41_P2 input2_P2_d6 )  (and (=  x52_P2 input6_P2_d0 )  (and (=  x69_P2 input3_P2_d7 )  (and (=  x70_P2 input3_P2_d8 )  (and (=  x71_P2 input3_P2_d13 )  (and (=  x72_P2 input3_P2_d14 )  (and (=  x73_P2 ( str.to_int input2_P2_d14  ) ) (=  x78 (+  x75 x77 ) ) ) ) ) ) ) ) ) ) ) ) ) ) ) ) ) ) ) ) ) ) ) ) ) ) ) ) ) ) ) ) ) ) )
(assert  (and (=  input1_P1_d6  "1999"  )  (and (=  input1_P1_d8  "11"  )  (and (=  x3_P1 x6_P1 )  (and (=  input3_P1_d20  "50"  )  (and (=  x9_P1 x16_P1 )  (and (=  x19_P1 x26_P1 )  (and (=  x29_P1 x38_P1 )  (and (=  x41_P1 x52_P1 )  (and  (not (=  ( str.substr input5_P1_d9  0 (- 5 0) ) ( str.substr input6_P1_d25  0 (- 5 0) ) ))  (and (isinteger  input2_P1_d14 )  (and (=  input1_P2_d6  "1999"  )  (and (=  input1_P2_d8  "11"  )  (and (=  x3_P2 x6_P2 )  (and (=  input3_P2_d20  "50"  )  (and (=  x9_P2 x16_P2 )  (and (=  x19_P2 x26_P2 )  (and (=  x29_P2 x38_P2 )  (and (=  x41_P2 x52_P2 )  (and  (not (=  ( str.substr input5_P2_d9  0 (- 5 0) ) ( str.substr input6_P2_d25  0 (- 5 0) ) ))  (and (isinteger  input2_P2_d14 )  (and (=  x69_P2 x69_P1 )  (and (=  x70_P2 x70_P1 )  (and (=  x71_P2 x71_P1 )  (and (=  x72_P2 x72_P1 )  (and (=  ( select  x79 1 ) x75 )  (and (>=  1 0 )  (and (<  1 x76 )  (and (=  ( select  x79 0 ) x77 )  (and (>=  0 0 )  (and (<  0 x76 ) (>=  x76 0 ) ) ) ) ) ) ) ) ) ) ) ) ) ) ) ) ) ) ) ) ) ) ) ) ) ) ) ) ) ) ) )
(check-sat)
(get-model)
